POSCAR for generated by WannierTools
1.0
    0.000000    0.000000   10.000000
    2.137711   -1.234208    0.000000
    0.000000  987.366400    0.000000
C     
   800
Direct
    0.500000    0.333333    0.001667        C
    0.500000    0.666667    0.000833        C
    0.500000    0.333333    0.004167        C
    0.500000    0.666667    0.003333        C
    0.500000    0.333333    0.006667        C
    0.500000    0.666667    0.005833        C
    0.500000    0.333333    0.009167        C
    0.500000    0.666667    0.008333        C
    0.500000    0.333333    0.011667        C
    0.500000    0.666667    0.010833        C
    0.500000    0.333333    0.014167        C
    0.500000    0.666667    0.013333        C
    0.500000    0.333333    0.016667        C
    0.500000    0.666667    0.015833        C
    0.500000    0.333333    0.019167        C
    0.500000    0.666667    0.018333        C
    0.500000    0.333333    0.021667        C
    0.500000    0.666667    0.020833        C
    0.500000    0.333333    0.024167        C
    0.500000    0.666667    0.023333        C
    0.500000    0.333333    0.026667        C
    0.500000    0.666667    0.025833        C
    0.500000    0.333333    0.029167        C
    0.500000    0.666667    0.028333        C
    0.500000    0.333333    0.031667        C
    0.500000    0.666667    0.030833        C
    0.500000    0.333333    0.034167        C
    0.500000    0.666667    0.033333        C
    0.500000    0.333333    0.036667        C
    0.500000    0.666667    0.035833        C
    0.500000    0.333333    0.039167        C
    0.500000    0.666667    0.038333        C
    0.500000    0.333333    0.041667        C
    0.500000    0.666667    0.040833        C
    0.500000    0.333333    0.044167        C
    0.500000    0.666667    0.043333        C
    0.500000    0.333333    0.046667        C
    0.500000    0.666667    0.045833        C
    0.500000    0.333333    0.049167        C
    0.500000    0.666667    0.048333        C
    0.500000    0.333333    0.051667        C
    0.500000    0.666667    0.050833        C
    0.500000    0.333333    0.054167        C
    0.500000    0.666667    0.053333        C
    0.500000    0.333333    0.056667        C
    0.500000    0.666667    0.055833        C
    0.500000    0.333333    0.059167        C
    0.500000    0.666667    0.058333        C
    0.500000    0.333333    0.061667        C
    0.500000    0.666667    0.060833        C
    0.500000    0.333333    0.064167        C
    0.500000    0.666667    0.063333        C
    0.500000    0.333333    0.066667        C
    0.500000    0.666667    0.065833        C
    0.500000    0.333333    0.069167        C
    0.500000    0.666667    0.068333        C
    0.500000    0.333333    0.071667        C
    0.500000    0.666667    0.070833        C
    0.500000    0.333333    0.074167        C
    0.500000    0.666667    0.073333        C
    0.500000    0.333333    0.076667        C
    0.500000    0.666667    0.075833        C
    0.500000    0.333333    0.079167        C
    0.500000    0.666667    0.078333        C
    0.500000    0.333333    0.081667        C
    0.500000    0.666667    0.080833        C
    0.500000    0.333333    0.084167        C
    0.500000    0.666667    0.083333        C
    0.500000    0.333333    0.086667        C
    0.500000    0.666667    0.085833        C
    0.500000    0.333333    0.089167        C
    0.500000    0.666667    0.088333        C
    0.500000    0.333333    0.091667        C
    0.500000    0.666667    0.090833        C
    0.500000    0.333333    0.094167        C
    0.500000    0.666667    0.093333        C
    0.500000    0.333333    0.096667        C
    0.500000    0.666667    0.095833        C
    0.500000    0.333333    0.099167        C
    0.500000    0.666667    0.098333        C
    0.500000    0.333333    0.101667        C
    0.500000    0.666667    0.100833        C
    0.500000    0.333333    0.104167        C
    0.500000    0.666667    0.103333        C
    0.500000    0.333333    0.106667        C
    0.500000    0.666667    0.105833        C
    0.500000    0.333333    0.109167        C
    0.500000    0.666667    0.108333        C
    0.500000    0.333333    0.111667        C
    0.500000    0.666667    0.110833        C
    0.500000    0.333333    0.114167        C
    0.500000    0.666667    0.113333        C
    0.500000    0.333333    0.116667        C
    0.500000    0.666667    0.115833        C
    0.500000    0.333333    0.119167        C
    0.500000    0.666667    0.118333        C
    0.500000    0.333333    0.121667        C
    0.500000    0.666667    0.120833        C
    0.500000    0.333333    0.124167        C
    0.500000    0.666667    0.123333        C
    0.500000    0.333333    0.126667        C
    0.500000    0.666667    0.125833        C
    0.500000    0.333333    0.129167        C
    0.500000    0.666667    0.128333        C
    0.500000    0.333333    0.131667        C
    0.500000    0.666667    0.130833        C
    0.500000    0.333333    0.134167        C
    0.500000    0.666667    0.133333        C
    0.500000    0.333333    0.136667        C
    0.500000    0.666667    0.135833        C
    0.500000    0.333333    0.139167        C
    0.500000    0.666667    0.138333        C
    0.500000    0.333333    0.141667        C
    0.500000    0.666667    0.140833        C
    0.500000    0.333333    0.144167        C
    0.500000    0.666667    0.143333        C
    0.500000    0.333333    0.146667        C
    0.500000    0.666667    0.145833        C
    0.500000    0.333333    0.149167        C
    0.500000    0.666667    0.148333        C
    0.500000    0.333333    0.151667        C
    0.500000    0.666667    0.150833        C
    0.500000    0.333333    0.154167        C
    0.500000    0.666667    0.153333        C
    0.500000    0.333333    0.156667        C
    0.500000    0.666667    0.155833        C
    0.500000    0.333333    0.159167        C
    0.500000    0.666667    0.158333        C
    0.500000    0.333333    0.161667        C
    0.500000    0.666667    0.160833        C
    0.500000    0.333333    0.164167        C
    0.500000    0.666667    0.163333        C
    0.500000    0.333333    0.166667        C
    0.500000    0.666667    0.165833        C
    0.500000    0.333333    0.169167        C
    0.500000    0.666667    0.168333        C
    0.500000    0.333333    0.171667        C
    0.500000    0.666667    0.170833        C
    0.500000    0.333333    0.174167        C
    0.500000    0.666667    0.173333        C
    0.500000    0.333333    0.176667        C
    0.500000    0.666667    0.175833        C
    0.500000    0.333333    0.179167        C
    0.500000    0.666667    0.178333        C
    0.500000    0.333333    0.181667        C
    0.500000    0.666667    0.180833        C
    0.500000    0.333333    0.184167        C
    0.500000    0.666667    0.183333        C
    0.500000    0.333333    0.186667        C
    0.500000    0.666667    0.185833        C
    0.500000    0.333333    0.189167        C
    0.500000    0.666667    0.188333        C
    0.500000    0.333333    0.191667        C
    0.500000    0.666667    0.190833        C
    0.500000    0.333333    0.194167        C
    0.500000    0.666667    0.193333        C
    0.500000    0.333333    0.196667        C
    0.500000    0.666667    0.195833        C
    0.500000    0.333333    0.199167        C
    0.500000    0.666667    0.198333        C
    0.500000    0.333333    0.201667        C
    0.500000    0.666667    0.200833        C
    0.500000    0.333333    0.204167        C
    0.500000    0.666667    0.203333        C
    0.500000    0.333333    0.206667        C
    0.500000    0.666667    0.205833        C
    0.500000    0.333333    0.209167        C
    0.500000    0.666667    0.208333        C
    0.500000    0.333333    0.211667        C
    0.500000    0.666667    0.210833        C
    0.500000    0.333333    0.214167        C
    0.500000    0.666667    0.213333        C
    0.500000    0.333333    0.216667        C
    0.500000    0.666667    0.215833        C
    0.500000    0.333333    0.219167        C
    0.500000    0.666667    0.218333        C
    0.500000    0.333333    0.221667        C
    0.500000    0.666667    0.220833        C
    0.500000    0.333333    0.224167        C
    0.500000    0.666667    0.223333        C
    0.500000    0.333333    0.226667        C
    0.500000    0.666667    0.225833        C
    0.500000    0.333333    0.229167        C
    0.500000    0.666667    0.228333        C
    0.500000    0.333333    0.231667        C
    0.500000    0.666667    0.230833        C
    0.500000    0.333333    0.234167        C
    0.500000    0.666667    0.233333        C
    0.500000    0.333333    0.236667        C
    0.500000    0.666667    0.235833        C
    0.500000    0.333333    0.239167        C
    0.500000    0.666667    0.238333        C
    0.500000    0.333333    0.241667        C
    0.500000    0.666667    0.240833        C
    0.500000    0.333333    0.244167        C
    0.500000    0.666667    0.243333        C
    0.500000    0.333333    0.246667        C
    0.500000    0.666667    0.245833        C
    0.500000    0.333333    0.249167        C
    0.500000    0.666667    0.248333        C
    0.500000    0.333333    0.251667        C
    0.500000    0.666667    0.250833        C
    0.500000    0.333333    0.254167        C
    0.500000    0.666667    0.253333        C
    0.500000    0.333333    0.256667        C
    0.500000    0.666667    0.255833        C
    0.500000    0.333333    0.259167        C
    0.500000    0.666667    0.258333        C
    0.500000    0.333333    0.261667        C
    0.500000    0.666667    0.260833        C
    0.500000    0.333333    0.264167        C
    0.500000    0.666667    0.263333        C
    0.500000    0.333333    0.266667        C
    0.500000    0.666667    0.265833        C
    0.500000    0.333333    0.269167        C
    0.500000    0.666667    0.268333        C
    0.500000    0.333333    0.271667        C
    0.500000    0.666667    0.270833        C
    0.500000    0.333333    0.274167        C
    0.500000    0.666667    0.273333        C
    0.500000    0.333333    0.276667        C
    0.500000    0.666667    0.275833        C
    0.500000    0.333333    0.279167        C
    0.500000    0.666667    0.278333        C
    0.500000    0.333333    0.281667        C
    0.500000    0.666667    0.280833        C
    0.500000    0.333333    0.284167        C
    0.500000    0.666667    0.283333        C
    0.500000    0.333333    0.286667        C
    0.500000    0.666667    0.285833        C
    0.500000    0.333333    0.289167        C
    0.500000    0.666667    0.288333        C
    0.500000    0.333333    0.291667        C
    0.500000    0.666667    0.290833        C
    0.500000    0.333333    0.294167        C
    0.500000    0.666667    0.293333        C
    0.500000    0.333333    0.296667        C
    0.500000    0.666667    0.295833        C
    0.500000    0.333333    0.299167        C
    0.500000    0.666667    0.298333        C
    0.500000    0.333333    0.301667        C
    0.500000    0.666667    0.300833        C
    0.500000    0.333333    0.304167        C
    0.500000    0.666667    0.303333        C
    0.500000    0.333333    0.306667        C
    0.500000    0.666667    0.305833        C
    0.500000    0.333333    0.309167        C
    0.500000    0.666667    0.308333        C
    0.500000    0.333333    0.311667        C
    0.500000    0.666667    0.310833        C
    0.500000    0.333333    0.314167        C
    0.500000    0.666667    0.313333        C
    0.500000    0.333333    0.316667        C
    0.500000    0.666667    0.315833        C
    0.500000    0.333333    0.319167        C
    0.500000    0.666667    0.318333        C
    0.500000    0.333333    0.321667        C
    0.500000    0.666667    0.320833        C
    0.500000    0.333333    0.324167        C
    0.500000    0.666667    0.323333        C
    0.500000    0.333333    0.326667        C
    0.500000    0.666667    0.325833        C
    0.500000    0.333333    0.329167        C
    0.500000    0.666667    0.328333        C
    0.500000    0.333333    0.331667        C
    0.500000    0.666667    0.330833        C
    0.500000    0.333333    0.334167        C
    0.500000    0.666667    0.333333        C
    0.500000    0.333333    0.336667        C
    0.500000    0.666667    0.335833        C
    0.500000    0.333333    0.339167        C
    0.500000    0.666667    0.338333        C
    0.500000    0.333333    0.341667        C
    0.500000    0.666667    0.340833        C
    0.500000    0.333333    0.344167        C
    0.500000    0.666667    0.343333        C
    0.500000    0.333333    0.346667        C
    0.500000    0.666667    0.345833        C
    0.500000    0.333333    0.349167        C
    0.500000    0.666667    0.348333        C
    0.500000    0.333333    0.351667        C
    0.500000    0.666667    0.350833        C
    0.500000    0.333333    0.354167        C
    0.500000    0.666667    0.353333        C
    0.500000    0.333333    0.356667        C
    0.500000    0.666667    0.355833        C
    0.500000    0.333333    0.359167        C
    0.500000    0.666667    0.358333        C
    0.500000    0.333333    0.361667        C
    0.500000    0.666667    0.360833        C
    0.500000    0.333333    0.364167        C
    0.500000    0.666667    0.363333        C
    0.500000    0.333333    0.366667        C
    0.500000    0.666667    0.365833        C
    0.500000    0.333333    0.369167        C
    0.500000    0.666667    0.368333        C
    0.500000    0.333333    0.371667        C
    0.500000    0.666667    0.370833        C
    0.500000    0.333333    0.374167        C
    0.500000    0.666667    0.373333        C
    0.500000    0.333333    0.376667        C
    0.500000    0.666667    0.375833        C
    0.500000    0.333333    0.379167        C
    0.500000    0.666667    0.378333        C
    0.500000    0.333333    0.381667        C
    0.500000    0.666667    0.380833        C
    0.500000    0.333333    0.384167        C
    0.500000    0.666667    0.383333        C
    0.500000    0.333333    0.386667        C
    0.500000    0.666667    0.385833        C
    0.500000    0.333333    0.389167        C
    0.500000    0.666667    0.388333        C
    0.500000    0.333333    0.391667        C
    0.500000    0.666667    0.390833        C
    0.500000    0.333333    0.394167        C
    0.500000    0.666667    0.393333        C
    0.500000    0.333333    0.396667        C
    0.500000    0.666667    0.395833        C
    0.500000    0.333333    0.399167        C
    0.500000    0.666667    0.398333        C
    0.500000    0.333333    0.401667        C
    0.500000    0.666667    0.400833        C
    0.500000    0.333333    0.404167        C
    0.500000    0.666667    0.403333        C
    0.500000    0.333333    0.406667        C
    0.500000    0.666667    0.405833        C
    0.500000    0.333333    0.409167        C
    0.500000    0.666667    0.408333        C
    0.500000    0.333333    0.411667        C
    0.500000    0.666667    0.410833        C
    0.500000    0.333333    0.414167        C
    0.500000    0.666667    0.413333        C
    0.500000    0.333333    0.416667        C
    0.500000    0.666667    0.415833        C
    0.500000    0.333333    0.419167        C
    0.500000    0.666667    0.418333        C
    0.500000    0.333333    0.421667        C
    0.500000    0.666667    0.420833        C
    0.500000    0.333333    0.424167        C
    0.500000    0.666667    0.423333        C
    0.500000    0.333333    0.426667        C
    0.500000    0.666667    0.425833        C
    0.500000    0.333333    0.429167        C
    0.500000    0.666667    0.428333        C
    0.500000    0.333333    0.431667        C
    0.500000    0.666667    0.430833        C
    0.500000    0.333333    0.434167        C
    0.500000    0.666667    0.433333        C
    0.500000    0.333333    0.436667        C
    0.500000    0.666667    0.435833        C
    0.500000    0.333333    0.439167        C
    0.500000    0.666667    0.438333        C
    0.500000    0.333333    0.441667        C
    0.500000    0.666667    0.440833        C
    0.500000    0.333333    0.444167        C
    0.500000    0.666667    0.443333        C
    0.500000    0.333333    0.446667        C
    0.500000    0.666667    0.445833        C
    0.500000    0.333333    0.449167        C
    0.500000    0.666667    0.448333        C
    0.500000    0.333333    0.451667        C
    0.500000    0.666667    0.450833        C
    0.500000    0.333333    0.454167        C
    0.500000    0.666667    0.453333        C
    0.500000    0.333333    0.456667        C
    0.500000    0.666667    0.455833        C
    0.500000    0.333333    0.459167        C
    0.500000    0.666667    0.458333        C
    0.500000    0.333333    0.461667        C
    0.500000    0.666667    0.460833        C
    0.500000    0.333333    0.464167        C
    0.500000    0.666667    0.463333        C
    0.500000    0.333333    0.466667        C
    0.500000    0.666667    0.465833        C
    0.500000    0.333333    0.469167        C
    0.500000    0.666667    0.468333        C
    0.500000    0.333333    0.471667        C
    0.500000    0.666667    0.470833        C
    0.500000    0.333333    0.474167        C
    0.500000    0.666667    0.473333        C
    0.500000    0.333333    0.476667        C
    0.500000    0.666667    0.475833        C
    0.500000    0.333333    0.479167        C
    0.500000    0.666667    0.478333        C
    0.500000    0.333333    0.481667        C
    0.500000    0.666667    0.480833        C
    0.500000    0.333333    0.484167        C
    0.500000    0.666667    0.483333        C
    0.500000    0.333333    0.486667        C
    0.500000    0.666667    0.485833        C
    0.500000    0.333333    0.489167        C
    0.500000    0.666667    0.488333        C
    0.500000    0.333333    0.491667        C
    0.500000    0.666667    0.490833        C
    0.500000    0.333333    0.494167        C
    0.500000    0.666667    0.493333        C
    0.500000    0.333333    0.496667        C
    0.500000    0.666667    0.495833        C
    0.500000    0.333333    0.499167        C
    0.500000    0.666667    0.498333        C
    0.500000    0.333333    0.501667        C
    0.500000    0.666667    0.500833        C
    0.500000    0.333333    0.504167        C
    0.500000    0.666667    0.503333        C
    0.500000    0.333333    0.506667        C
    0.500000    0.666667    0.505833        C
    0.500000    0.333333    0.509167        C
    0.500000    0.666667    0.508333        C
    0.500000    0.333333    0.511667        C
    0.500000    0.666667    0.510833        C
    0.500000    0.333333    0.514167        C
    0.500000    0.666667    0.513333        C
    0.500000    0.333333    0.516667        C
    0.500000    0.666667    0.515833        C
    0.500000    0.333333    0.519167        C
    0.500000    0.666667    0.518333        C
    0.500000    0.333333    0.521667        C
    0.500000    0.666667    0.520833        C
    0.500000    0.333333    0.524167        C
    0.500000    0.666667    0.523333        C
    0.500000    0.333333    0.526667        C
    0.500000    0.666667    0.525833        C
    0.500000    0.333333    0.529167        C
    0.500000    0.666667    0.528333        C
    0.500000    0.333333    0.531667        C
    0.500000    0.666667    0.530833        C
    0.500000    0.333333    0.534167        C
    0.500000    0.666667    0.533333        C
    0.500000    0.333333    0.536667        C
    0.500000    0.666667    0.535833        C
    0.500000    0.333333    0.539167        C
    0.500000    0.666667    0.538333        C
    0.500000    0.333333    0.541667        C
    0.500000    0.666667    0.540833        C
    0.500000    0.333333    0.544167        C
    0.500000    0.666667    0.543333        C
    0.500000    0.333333    0.546667        C
    0.500000    0.666667    0.545833        C
    0.500000    0.333333    0.549167        C
    0.500000    0.666667    0.548333        C
    0.500000    0.333333    0.551667        C
    0.500000    0.666667    0.550833        C
    0.500000    0.333333    0.554167        C
    0.500000    0.666667    0.553333        C
    0.500000    0.333333    0.556667        C
    0.500000    0.666667    0.555833        C
    0.500000    0.333333    0.559167        C
    0.500000    0.666667    0.558333        C
    0.500000    0.333333    0.561667        C
    0.500000    0.666667    0.560833        C
    0.500000    0.333333    0.564167        C
    0.500000    0.666667    0.563333        C
    0.500000    0.333333    0.566667        C
    0.500000    0.666667    0.565833        C
    0.500000    0.333333    0.569167        C
    0.500000    0.666667    0.568333        C
    0.500000    0.333333    0.571667        C
    0.500000    0.666667    0.570833        C
    0.500000    0.333333    0.574167        C
    0.500000    0.666667    0.573333        C
    0.500000    0.333333    0.576667        C
    0.500000    0.666667    0.575833        C
    0.500000    0.333333    0.579167        C
    0.500000    0.666667    0.578333        C
    0.500000    0.333333    0.581667        C
    0.500000    0.666667    0.580833        C
    0.500000    0.333333    0.584167        C
    0.500000    0.666667    0.583333        C
    0.500000    0.333333    0.586667        C
    0.500000    0.666667    0.585833        C
    0.500000    0.333333    0.589167        C
    0.500000    0.666667    0.588333        C
    0.500000    0.333333    0.591667        C
    0.500000    0.666667    0.590833        C
    0.500000    0.333333    0.594167        C
    0.500000    0.666667    0.593333        C
    0.500000    0.333333    0.596667        C
    0.500000    0.666667    0.595833        C
    0.500000    0.333333    0.599167        C
    0.500000    0.666667    0.598333        C
    0.500000    0.333333    0.601667        C
    0.500000    0.666667    0.600833        C
    0.500000    0.333333    0.604167        C
    0.500000    0.666667    0.603333        C
    0.500000    0.333333    0.606667        C
    0.500000    0.666667    0.605833        C
    0.500000    0.333333    0.609167        C
    0.500000    0.666667    0.608333        C
    0.500000    0.333333    0.611667        C
    0.500000    0.666667    0.610833        C
    0.500000    0.333333    0.614167        C
    0.500000    0.666667    0.613333        C
    0.500000    0.333333    0.616667        C
    0.500000    0.666667    0.615833        C
    0.500000    0.333333    0.619167        C
    0.500000    0.666667    0.618333        C
    0.500000    0.333333    0.621667        C
    0.500000    0.666667    0.620833        C
    0.500000    0.333333    0.624167        C
    0.500000    0.666667    0.623333        C
    0.500000    0.333333    0.626667        C
    0.500000    0.666667    0.625833        C
    0.500000    0.333333    0.629167        C
    0.500000    0.666667    0.628333        C
    0.500000    0.333333    0.631667        C
    0.500000    0.666667    0.630833        C
    0.500000    0.333333    0.634167        C
    0.500000    0.666667    0.633333        C
    0.500000    0.333333    0.636667        C
    0.500000    0.666667    0.635833        C
    0.500000    0.333333    0.639167        C
    0.500000    0.666667    0.638333        C
    0.500000    0.333333    0.641667        C
    0.500000    0.666667    0.640833        C
    0.500000    0.333333    0.644167        C
    0.500000    0.666667    0.643333        C
    0.500000    0.333333    0.646667        C
    0.500000    0.666667    0.645833        C
    0.500000    0.333333    0.649167        C
    0.500000    0.666667    0.648333        C
    0.500000    0.333333    0.651667        C
    0.500000    0.666667    0.650833        C
    0.500000    0.333333    0.654167        C
    0.500000    0.666667    0.653333        C
    0.500000    0.333333    0.656667        C
    0.500000    0.666667    0.655833        C
    0.500000    0.333333    0.659167        C
    0.500000    0.666667    0.658333        C
    0.500000    0.333333    0.661667        C
    0.500000    0.666667    0.660833        C
    0.500000    0.333333    0.664167        C
    0.500000    0.666667    0.663333        C
    0.500000    0.333333    0.666667        C
    0.500000    0.666667    0.665833        C
    0.500000    0.333333    0.669167        C
    0.500000    0.666667    0.668333        C
    0.500000    0.333333    0.671667        C
    0.500000    0.666667    0.670833        C
    0.500000    0.333333    0.674167        C
    0.500000    0.666667    0.673333        C
    0.500000    0.333333    0.676667        C
    0.500000    0.666667    0.675833        C
    0.500000    0.333333    0.679167        C
    0.500000    0.666667    0.678333        C
    0.500000    0.333333    0.681667        C
    0.500000    0.666667    0.680833        C
    0.500000    0.333333    0.684167        C
    0.500000    0.666667    0.683333        C
    0.500000    0.333333    0.686667        C
    0.500000    0.666667    0.685833        C
    0.500000    0.333333    0.689167        C
    0.500000    0.666667    0.688333        C
    0.500000    0.333333    0.691667        C
    0.500000    0.666667    0.690833        C
    0.500000    0.333333    0.694167        C
    0.500000    0.666667    0.693333        C
    0.500000    0.333333    0.696667        C
    0.500000    0.666667    0.695833        C
    0.500000    0.333333    0.699167        C
    0.500000    0.666667    0.698333        C
    0.500000    0.333333    0.701667        C
    0.500000    0.666667    0.700833        C
    0.500000    0.333333    0.704167        C
    0.500000    0.666667    0.703333        C
    0.500000    0.333333    0.706667        C
    0.500000    0.666667    0.705833        C
    0.500000    0.333333    0.709167        C
    0.500000    0.666667    0.708333        C
    0.500000    0.333333    0.711667        C
    0.500000    0.666667    0.710833        C
    0.500000    0.333333    0.714167        C
    0.500000    0.666667    0.713333        C
    0.500000    0.333333    0.716667        C
    0.500000    0.666667    0.715833        C
    0.500000    0.333333    0.719167        C
    0.500000    0.666667    0.718333        C
    0.500000    0.333333    0.721667        C
    0.500000    0.666667    0.720833        C
    0.500000    0.333333    0.724167        C
    0.500000    0.666667    0.723333        C
    0.500000    0.333333    0.726667        C
    0.500000    0.666667    0.725833        C
    0.500000    0.333333    0.729167        C
    0.500000    0.666667    0.728333        C
    0.500000    0.333333    0.731667        C
    0.500000    0.666667    0.730833        C
    0.500000    0.333333    0.734167        C
    0.500000    0.666667    0.733333        C
    0.500000    0.333333    0.736667        C
    0.500000    0.666667    0.735833        C
    0.500000    0.333333    0.739167        C
    0.500000    0.666667    0.738333        C
    0.500000    0.333333    0.741667        C
    0.500000    0.666667    0.740833        C
    0.500000    0.333333    0.744167        C
    0.500000    0.666667    0.743333        C
    0.500000    0.333333    0.746667        C
    0.500000    0.666667    0.745833        C
    0.500000    0.333333    0.749167        C
    0.500000    0.666667    0.748333        C
    0.500000    0.333333    0.751667        C
    0.500000    0.666667    0.750833        C
    0.500000    0.333333    0.754167        C
    0.500000    0.666667    0.753333        C
    0.500000    0.333333    0.756667        C
    0.500000    0.666667    0.755833        C
    0.500000    0.333333    0.759167        C
    0.500000    0.666667    0.758333        C
    0.500000    0.333333    0.761667        C
    0.500000    0.666667    0.760833        C
    0.500000    0.333333    0.764167        C
    0.500000    0.666667    0.763333        C
    0.500000    0.333333    0.766667        C
    0.500000    0.666667    0.765833        C
    0.500000    0.333333    0.769167        C
    0.500000    0.666667    0.768333        C
    0.500000    0.333333    0.771667        C
    0.500000    0.666667    0.770833        C
    0.500000    0.333333    0.774167        C
    0.500000    0.666667    0.773333        C
    0.500000    0.333333    0.776667        C
    0.500000    0.666667    0.775833        C
    0.500000    0.333333    0.779167        C
    0.500000    0.666667    0.778333        C
    0.500000    0.333333    0.781667        C
    0.500000    0.666667    0.780833        C
    0.500000    0.333333    0.784167        C
    0.500000    0.666667    0.783333        C
    0.500000    0.333333    0.786667        C
    0.500000    0.666667    0.785833        C
    0.500000    0.333333    0.789167        C
    0.500000    0.666667    0.788333        C
    0.500000    0.333333    0.791667        C
    0.500000    0.666667    0.790833        C
    0.500000    0.333333    0.794167        C
    0.500000    0.666667    0.793333        C
    0.500000    0.333333    0.796667        C
    0.500000    0.666667    0.795833        C
    0.500000    0.333333    0.799167        C
    0.500000    0.666667    0.798333        C
    0.500000    0.333333    0.801667        C
    0.500000    0.666667    0.800833        C
    0.500000    0.333333    0.804167        C
    0.500000    0.666667    0.803333        C
    0.500000    0.333333    0.806667        C
    0.500000    0.666667    0.805833        C
    0.500000    0.333333    0.809167        C
    0.500000    0.666667    0.808333        C