POSCAR for slab defined by SURFACE card and Nslab and Vacuum_thickness_in_Angstrom in wt.in by WannierTools
1.0
    0.000000    0.000000   10.000000
    2.137711   -1.234208    0.000000
    0.000000  999.587224    0.000000
C     
   800
Cartesian
    0.712570    8.044005    5.000000        C
    0.712570   10.512421    5.000000        C
    0.712570   12.980837    5.000000        C
    0.712570   15.449253    5.000000        C
    0.712570   17.917669    5.000000        C
    0.712570   20.386085    5.000000        C
    0.712570   22.854501    5.000000        C
    0.712570   25.322917    5.000000        C
    0.712570   27.791333    5.000000        C
    0.712570   30.259749    5.000000        C
    0.712570   32.728165    5.000000        C
    0.712570   35.196581    5.000000        C
    0.712570   37.664997    5.000000        C
    0.712570   40.133413    5.000000        C
    0.712570   42.601829    5.000000        C
    0.712570   45.070245    5.000000        C
    0.712570   47.538661    5.000000        C
    0.712570   50.007077    5.000000        C
    0.712570   52.475493    5.000000        C
    0.712570   54.943909    5.000000        C
    0.712570   57.412325    5.000000        C
    0.712570   59.880741    5.000000        C
    0.712570   62.349157    5.000000        C
    0.712570   64.817573    5.000000        C
    0.712570   67.285989    5.000000        C
    0.712570   69.754405    5.000000        C
    0.712570   72.222821    5.000000        C
    0.712570   74.691237    5.000000        C
    0.712570   77.159653    5.000000        C
    0.712570   79.628069    5.000000        C
    0.712570   82.096485    5.000000        C
    0.712570   84.564901    5.000000        C
    0.712570   87.033317    5.000000        C
    0.712570   89.501733    5.000000        C
    0.712570   91.970149    5.000000        C
    0.712570   94.438565    5.000000        C
    0.712570   96.906981    5.000000        C
    0.712570   99.375397    5.000000        C
    0.712570  101.843813    5.000000        C
    0.712570  104.312229    5.000000        C
    0.712570  106.780645    5.000000        C
    0.712570  109.249061    5.000000        C
    0.712570  111.717477    5.000000        C
    0.712570  114.185893    5.000000        C
    0.712570  116.654309    5.000000        C
    0.712570  119.122725    5.000000        C
    0.712570  121.591141    5.000000        C
    0.712570  124.059557    5.000000        C
    0.712570  126.527973    5.000000        C
    0.712570  128.996389    5.000000        C
    0.712570  131.464805    5.000000        C
    0.712570  133.933221    5.000000        C
    0.712570  136.401637    5.000000        C
    0.712570  138.870053    5.000000        C
    0.712570  141.338469    5.000000        C
    0.712570  143.806885    5.000000        C
    0.712570  146.275301    5.000000        C
    0.712570  148.743717    5.000000        C
    0.712570  151.212133    5.000000        C
    0.712570  153.680549    5.000000        C
    0.712570  156.148965    5.000000        C
    0.712570  158.617381    5.000000        C
    0.712570  161.085797    5.000000        C
    0.712570  163.554213    5.000000        C
    0.712570  166.022629    5.000000        C
    0.712570  168.491045    5.000000        C
    0.712570  170.959461    5.000000        C
    0.712570  173.427877    5.000000        C
    0.712570  175.896293    5.000000        C
    0.712570  178.364709    5.000000        C
    0.712570  180.833125    5.000000        C
    0.712570  183.301541    5.000000        C
    0.712570  185.769957    5.000000        C
    0.712570  188.238373    5.000000        C
    0.712570  190.706789    5.000000        C
    0.712570  193.175205    5.000000        C
    0.712570  195.643621    5.000000        C
    0.712570  198.112037    5.000000        C
    0.712570  200.580453    5.000000        C
    0.712570  203.048869    5.000000        C
    0.712570  205.517285    5.000000        C
    0.712570  207.985701    5.000000        C
    0.712570  210.454117    5.000000        C
    0.712570  212.922533    5.000000        C
    0.712570  215.390949    5.000000        C
    0.712570  217.859365    5.000000        C
    0.712570  220.327781    5.000000        C
    0.712570  222.796197    5.000000        C
    0.712570  225.264613    5.000000        C
    0.712570  227.733029    5.000000        C
    0.712570  230.201445    5.000000        C
    0.712570  232.669861    5.000000        C
    0.712570  235.138277    5.000000        C
    0.712570  237.606693    5.000000        C
    0.712570  240.075109    5.000000        C
    0.712570  242.543525    5.000000        C
    0.712570  245.011941    5.000000        C
    0.712570  247.480357    5.000000        C
    0.712570  249.948773    5.000000        C
    0.712570  252.417189    5.000000        C
    0.712570  254.885605    5.000000        C
    0.712570  257.354021    5.000000        C
    0.712570  259.822437    5.000000        C
    0.712570  262.290853    5.000000        C
    0.712570  264.759269    5.000000        C
    0.712570  267.227685    5.000000        C
    0.712570  269.696101    5.000000        C
    0.712570  272.164517    5.000000        C
    0.712570  274.632933    5.000000        C
    0.712570  277.101349    5.000000        C
    0.712570  279.569765    5.000000        C
    0.712570  282.038181    5.000000        C
    0.712570  284.506597    5.000000        C
    0.712570  286.975013    5.000000        C
    0.712570  289.443429    5.000000        C
    0.712570  291.911845    5.000000        C
    0.712570  294.380261    5.000000        C
    0.712570  296.848677    5.000000        C
    0.712570  299.317093    5.000000        C
    0.712570  301.785509    5.000000        C
    0.712570  304.253925    5.000000        C
    0.712570  306.722341    5.000000        C
    0.712570  309.190757    5.000000        C
    0.712570  311.659173    5.000000        C
    0.712570  314.127589    5.000000        C
    0.712570  316.596005    5.000000        C
    0.712570  319.064421    5.000000        C
    0.712570  321.532837    5.000000        C
    0.712570  324.001253    5.000000        C
    0.712570  326.469669    5.000000        C
    0.712570  328.938085    5.000000        C
    0.712570  331.406501    5.000000        C
    0.712570  333.874917    5.000000        C
    0.712570  336.343333    5.000000        C
    0.712570  338.811749    5.000000        C
    0.712570  341.280165    5.000000        C
    0.712570  343.748581    5.000000        C
    0.712570  346.216997    5.000000        C
    0.712570  348.685413    5.000000        C
    0.712570  351.153829    5.000000        C
    0.712570  353.622245    5.000000        C
    0.712570  356.090661    5.000000        C
    0.712570  358.559077    5.000000        C
    0.712570  361.027493    5.000000        C
    0.712570  363.495909    5.000000        C
    0.712570  365.964325    5.000000        C
    0.712570  368.432741    5.000000        C
    0.712570  370.901157    5.000000        C
    0.712570  373.369573    5.000000        C
    0.712570  375.837989    5.000000        C
    0.712570  378.306405    5.000000        C
    0.712570  380.774821    5.000000        C
    0.712570  383.243237    5.000000        C
    0.712570  385.711653    5.000000        C
    0.712570  388.180069    5.000000        C
    0.712570  390.648485    5.000000        C
    0.712570  393.116901    5.000000        C
    0.712570  395.585317    5.000000        C
    0.712570  398.053733    5.000000        C
    0.712570  400.522149    5.000000        C
    0.712570  402.990565    5.000000        C
    0.712570  405.458981    5.000000        C
    0.712570  407.927397    5.000000        C
    0.712570  410.395813    5.000000        C
    0.712570  412.864229    5.000000        C
    0.712570  415.332645    5.000000        C
    0.712570  417.801061    5.000000        C
    0.712570  420.269477    5.000000        C
    0.712570  422.737893    5.000000        C
    0.712570  425.206309    5.000000        C
    0.712570  427.674725    5.000000        C
    0.712570  430.143141    5.000000        C
    0.712570  432.611557    5.000000        C
    0.712570  435.079973    5.000000        C
    0.712570  437.548389    5.000000        C
    0.712570  440.016805    5.000000        C
    0.712570  442.485221    5.000000        C
    0.712570  444.953637    5.000000        C
    0.712570  447.422053    5.000000        C
    0.712570  449.890469    5.000000        C
    0.712570  452.358885    5.000000        C
    0.712570  454.827301    5.000000        C
    0.712570  457.295717    5.000000        C
    0.712570  459.764133    5.000000        C
    0.712570  462.232549    5.000000        C
    0.712570  464.700965    5.000000        C
    0.712570  467.169381    5.000000        C
    0.712570  469.637797    5.000000        C
    0.712570  472.106213    5.000000        C
    0.712570  474.574629    5.000000        C
    0.712570  477.043045    5.000000        C
    0.712570  479.511461    5.000000        C
    0.712570  481.979877    5.000000        C
    0.712570  484.448293    5.000000        C
    0.712570  486.916709    5.000000        C
    0.712570  489.385125    5.000000        C
    0.712570  491.853541    5.000000        C
    0.712570  494.321957    5.000000        C
    0.712570  496.790373    5.000000        C
    0.712570  499.258789    5.000000        C
    0.712570  501.727205    5.000000        C
    0.712570  504.195621    5.000000        C
    0.712570  506.664037    5.000000        C
    0.712570  509.132453    5.000000        C
    0.712570  511.600869    5.000000        C
    0.712570  514.069285    5.000000        C
    0.712570  516.537701    5.000000        C
    0.712570  519.006117    5.000000        C
    0.712570  521.474533    5.000000        C
    0.712570  523.942949    5.000000        C
    0.712570  526.411365    5.000000        C
    0.712570  528.879781    5.000000        C
    0.712570  531.348197    5.000000        C
    0.712570  533.816613    5.000000        C
    0.712570  536.285029    5.000000        C
    0.712570  538.753445    5.000000        C
    0.712570  541.221861    5.000000        C
    0.712570  543.690277    5.000000        C
    0.712570  546.158693    5.000000        C
    0.712570  548.627109    5.000000        C
    0.712570  551.095525    5.000000        C
    0.712570  553.563941    5.000000        C
    0.712570  556.032357    5.000000        C
    0.712570  558.500773    5.000000        C
    0.712570  560.969189    5.000000        C
    0.712570  563.437605    5.000000        C
    0.712570  565.906021    5.000000        C
    0.712570  568.374437    5.000000        C
    0.712570  570.842853    5.000000        C
    0.712570  573.311269    5.000000        C
    0.712570  575.779685    5.000000        C
    0.712570  578.248101    5.000000        C
    0.712570  580.716517    5.000000        C
    0.712570  583.184933    5.000000        C
    0.712570  585.653349    5.000000        C
    0.712570  588.121765    5.000000        C
    0.712570  590.590181    5.000000        C
    0.712570  593.058597    5.000000        C
    0.712570  595.527013    5.000000        C
    0.712570  597.995429    5.000000        C
    0.712570  600.463845    5.000000        C
    0.712570  602.932261    5.000000        C
    0.712570  605.400677    5.000000        C
    0.712570  607.869093    5.000000        C
    0.712570  610.337509    5.000000        C
    0.712570  612.805925    5.000000        C
    0.712570  615.274341    5.000000        C
    0.712570  617.742757    5.000000        C
    0.712570  620.211173    5.000000        C
    0.712570  622.679589    5.000000        C
    0.712570  625.148005    5.000000        C
    0.712570  627.616421    5.000000        C
    0.712570  630.084837    5.000000        C
    0.712570  632.553253    5.000000        C
    0.712570  635.021669    5.000000        C
    0.712570  637.490085    5.000000        C
    0.712570  639.958501    5.000000        C
    0.712570  642.426917    5.000000        C
    0.712570  644.895333    5.000000        C
    0.712570  647.363749    5.000000        C
    0.712570  649.832165    5.000000        C
    0.712570  652.300581    5.000000        C
    0.712570  654.768997    5.000000        C
    0.712570  657.237413    5.000000        C
    0.712570  659.705829    5.000000        C
    0.712570  662.174245    5.000000        C
    0.712570  664.642661    5.000000        C
    0.712570  667.111077    5.000000        C
    0.712570  669.579493    5.000000        C
    0.712570  672.047909    5.000000        C
    0.712570  674.516325    5.000000        C
    0.712570  676.984741    5.000000        C
    0.712570  679.453157    5.000000        C
    0.712570  681.921573    5.000000        C
    0.712570  684.389989    5.000000        C
    0.712570  686.858405    5.000000        C
    0.712570  689.326821    5.000000        C
    0.712570  691.795237    5.000000        C
    0.712570  694.263653    5.000000        C
    0.712570  696.732069    5.000000        C
    0.712570  699.200485    5.000000        C
    0.712570  701.668901    5.000000        C
    0.712570  704.137317    5.000000        C
    0.712570  706.605733    5.000000        C
    0.712570  709.074149    5.000000        C
    0.712570  711.542565    5.000000        C
    0.712570  714.010981    5.000000        C
    0.712570  716.479397    5.000000        C
    0.712570  718.947813    5.000000        C
    0.712570  721.416229    5.000000        C
    0.712570  723.884645    5.000000        C
    0.712570  726.353061    5.000000        C
    0.712570  728.821477    5.000000        C
    0.712570  731.289893    5.000000        C
    0.712570  733.758309    5.000000        C
    0.712570  736.226725    5.000000        C
    0.712570  738.695141    5.000000        C
    0.712570  741.163557    5.000000        C
    0.712570  743.631973    5.000000        C
    0.712570  746.100389    5.000000        C
    0.712570  748.568805    5.000000        C
    0.712570  751.037221    5.000000        C
    0.712570  753.505637    5.000000        C
    0.712570  755.974053    5.000000        C
    0.712570  758.442469    5.000000        C
    0.712570  760.910885    5.000000        C
    0.712570  763.379301    5.000000        C
    0.712570  765.847717    5.000000        C
    0.712570  768.316133    5.000000        C
    0.712570  770.784549    5.000000        C
    0.712570  773.252965    5.000000        C
    0.712570  775.721381    5.000000        C
    0.712570  778.189797    5.000000        C
    0.712570  780.658213    5.000000        C
    0.712570  783.126629    5.000000        C
    0.712570  785.595045    5.000000        C
    0.712570  788.063461    5.000000        C
    0.712570  790.531877    5.000000        C
    0.712570  793.000293    5.000000        C
    0.712570  795.468709    5.000000        C
    0.712570  797.937125    5.000000        C
    0.712570  800.405541    5.000000        C
    0.712570  802.873957    5.000000        C
    0.712570  805.342373    5.000000        C
    0.712570  807.810789    5.000000        C
    0.712570  810.279205    5.000000        C
    0.712570  812.747621    5.000000        C
    0.712570  815.216037    5.000000        C
    0.712570  817.684453    5.000000        C
    0.712570  820.152869    5.000000        C
    0.712570  822.621285    5.000000        C
    0.712570  825.089701    5.000000        C
    0.712570  827.558117    5.000000        C
    0.712570  830.026533    5.000000        C
    0.712570  832.494949    5.000000        C
    0.712570  834.963365    5.000000        C
    0.712570  837.431781    5.000000        C
    0.712570  839.900197    5.000000        C
    0.712570  842.368613    5.000000        C
    0.712570  844.837029    5.000000        C
    0.712570  847.305445    5.000000        C
    0.712570  849.773861    5.000000        C
    0.712570  852.242277    5.000000        C
    0.712570  854.710693    5.000000        C
    0.712570  857.179109    5.000000        C
    0.712570  859.647525    5.000000        C
    0.712570  862.115941    5.000000        C
    0.712570  864.584357    5.000000        C
    0.712570  867.052773    5.000000        C
    0.712570  869.521189    5.000000        C
    0.712570  871.989605    5.000000        C
    0.712570  874.458021    5.000000        C
    0.712570  876.926437    5.000000        C
    0.712570  879.394853    5.000000        C
    0.712570  881.863269    5.000000        C
    0.712570  884.331685    5.000000        C
    0.712570  886.800101    5.000000        C
    0.712570  889.268517    5.000000        C
    0.712570  891.736933    5.000000        C
    0.712570  894.205349    5.000000        C
    0.712570  896.673765    5.000000        C
    0.712570  899.142181    5.000000        C
    0.712570  901.610597    5.000000        C
    0.712570  904.079013    5.000000        C
    0.712570  906.547429    5.000000        C
    0.712570  909.015845    5.000000        C
    0.712570  911.484261    5.000000        C
    0.712570  913.952677    5.000000        C
    0.712570  916.421093    5.000000        C
    0.712570  918.889509    5.000000        C
    0.712570  921.357925    5.000000        C
    0.712570  923.826341    5.000000        C
    0.712570  926.294757    5.000000        C
    0.712570  928.763173    5.000000        C
    0.712570  931.231589    5.000000        C
    0.712570  933.700005    5.000000        C
    0.712570  936.168421    5.000000        C
    0.712570  938.636837    5.000000        C
    0.712570  941.105253    5.000000        C
    0.712570  943.573669    5.000000        C
    0.712570  946.042085    5.000000        C
    0.712570  948.510501    5.000000        C
    0.712570  950.978917    5.000000        C
    0.712570  953.447333    5.000000        C
    0.712570  955.915749    5.000000        C
    0.712570  958.384165    5.000000        C
    0.712570  960.852581    5.000000        C
    0.712570  963.320997    5.000000        C
    0.712570  965.789413    5.000000        C
    0.712570  968.257829    5.000000        C
    0.712570  970.726245    5.000000        C
    0.712570  973.194661    5.000000        C
    0.712570  975.663077    5.000000        C
    0.712570  978.131493    5.000000        C
    0.712570  980.599909    5.000000        C
    0.712570  983.068325    5.000000        C
    0.712570  985.536741    5.000000        C
    0.712570  988.005157    5.000000        C
    0.712570  990.473573    5.000000        C
    0.712570  992.941989    5.000000        C
    1.425141    6.809795    5.000000        C
    1.425141    9.278211    5.000000        C
    1.425141   11.746627    5.000000        C
    1.425141   14.215043    5.000000        C
    1.425141   16.683459    5.000000        C
    1.425141   19.151875    5.000000        C
    1.425141   21.620291    5.000000        C
    1.425141   24.088707    5.000000        C
    1.425141   26.557123    5.000000        C
    1.425141   29.025539    5.000000        C
    1.425141   31.493955    5.000000        C
    1.425141   33.962371    5.000000        C
    1.425141   36.430787    5.000000        C
    1.425141   38.899203    5.000000        C
    1.425141   41.367619    5.000000        C
    1.425141   43.836035    5.000000        C
    1.425141   46.304451    5.000000        C
    1.425141   48.772867    5.000000        C
    1.425141   51.241283    5.000000        C
    1.425141   53.709699    5.000000        C
    1.425141   56.178115    5.000000        C
    1.425141   58.646531    5.000000        C
    1.425141   61.114947    5.000000        C
    1.425141   63.583363    5.000000        C
    1.425141   66.051779    5.000000        C
    1.425141   68.520195    5.000000        C
    1.425141   70.988611    5.000000        C
    1.425141   73.457027    5.000000        C
    1.425141   75.925443    5.000000        C
    1.425141   78.393859    5.000000        C
    1.425141   80.862275    5.000000        C
    1.425141   83.330691    5.000000        C
    1.425141   85.799107    5.000000        C
    1.425141   88.267523    5.000000        C
    1.425141   90.735939    5.000000        C
    1.425141   93.204355    5.000000        C
    1.425141   95.672771    5.000000        C
    1.425141   98.141187    5.000000        C
    1.425141  100.609603    5.000000        C
    1.425141  103.078019    5.000000        C
    1.425141  105.546435    5.000000        C
    1.425141  108.014851    5.000000        C
    1.425141  110.483267    5.000000        C
    1.425141  112.951683    5.000000        C
    1.425141  115.420099    5.000000        C
    1.425141  117.888515    5.000000        C
    1.425141  120.356931    5.000000        C
    1.425141  122.825347    5.000000        C
    1.425141  125.293763    5.000000        C
    1.425141  127.762179    5.000000        C
    1.425141  130.230595    5.000000        C
    1.425141  132.699011    5.000000        C
    1.425141  135.167427    5.000000        C
    1.425141  137.635843    5.000000        C
    1.425141  140.104259    5.000000        C
    1.425141  142.572675    5.000000        C
    1.425141  145.041091    5.000000        C
    1.425141  147.509507    5.000000        C
    1.425141  149.977923    5.000000        C
    1.425141  152.446339    5.000000        C
    1.425141  154.914755    5.000000        C
    1.425141  157.383171    5.000000        C
    1.425141  159.851587    5.000000        C
    1.425141  162.320003    5.000000        C
    1.425141  164.788419    5.000000        C
    1.425141  167.256835    5.000000        C
    1.425141  169.725251    5.000000        C
    1.425141  172.193667    5.000000        C
    1.425141  174.662083    5.000000        C
    1.425141  177.130499    5.000000        C
    1.425141  179.598915    5.000000        C
    1.425141  182.067331    5.000000        C
    1.425141  184.535747    5.000000        C
    1.425141  187.004163    5.000000        C
    1.425141  189.472579    5.000000        C
    1.425141  191.940995    5.000000        C
    1.425141  194.409411    5.000000        C
    1.425141  196.877827    5.000000        C
    1.425141  199.346243    5.000000        C
    1.425141  201.814659    5.000000        C
    1.425141  204.283075    5.000000        C
    1.425141  206.751491    5.000000        C
    1.425141  209.219907    5.000000        C
    1.425141  211.688323    5.000000        C
    1.425141  214.156739    5.000000        C
    1.425141  216.625155    5.000000        C
    1.425141  219.093571    5.000000        C
    1.425141  221.561987    5.000000        C
    1.425141  224.030403    5.000000        C
    1.425141  226.498819    5.000000        C
    1.425141  228.967235    5.000000        C
    1.425141  231.435651    5.000000        C
    1.425141  233.904067    5.000000        C
    1.425141  236.372483    5.000000        C
    1.425141  238.840899    5.000000        C
    1.425141  241.309315    5.000000        C
    1.425141  243.777731    5.000000        C
    1.425141  246.246147    5.000000        C
    1.425141  248.714563    5.000000        C
    1.425141  251.182979    5.000000        C
    1.425141  253.651395    5.000000        C
    1.425141  256.119811    5.000000        C
    1.425141  258.588227    5.000000        C
    1.425141  261.056643    5.000000        C
    1.425141  263.525059    5.000000        C
    1.425141  265.993475    5.000000        C
    1.425141  268.461891    5.000000        C
    1.425141  270.930307    5.000000        C
    1.425141  273.398723    5.000000        C
    1.425141  275.867139    5.000000        C
    1.425141  278.335555    5.000000        C
    1.425141  280.803971    5.000000        C
    1.425141  283.272387    5.000000        C
    1.425141  285.740803    5.000000        C
    1.425141  288.209219    5.000000        C
    1.425141  290.677635    5.000000        C
    1.425141  293.146051    5.000000        C
    1.425141  295.614467    5.000000        C
    1.425141  298.082883    5.000000        C
    1.425141  300.551299    5.000000        C
    1.425141  303.019715    5.000000        C
    1.425141  305.488131    5.000000        C
    1.425141  307.956547    5.000000        C
    1.425141  310.424963    5.000000        C
    1.425141  312.893379    5.000000        C
    1.425141  315.361795    5.000000        C
    1.425141  317.830211    5.000000        C
    1.425141  320.298627    5.000000        C
    1.425141  322.767043    5.000000        C
    1.425141  325.235459    5.000000        C
    1.425141  327.703875    5.000000        C
    1.425141  330.172291    5.000000        C
    1.425141  332.640707    5.000000        C
    1.425141  335.109123    5.000000        C
    1.425141  337.577539    5.000000        C
    1.425141  340.045955    5.000000        C
    1.425141  342.514371    5.000000        C
    1.425141  344.982787    5.000000        C
    1.425141  347.451203    5.000000        C
    1.425141  349.919619    5.000000        C
    1.425141  352.388035    5.000000        C
    1.425141  354.856451    5.000000        C
    1.425141  357.324867    5.000000        C
    1.425141  359.793283    5.000000        C
    1.425141  362.261699    5.000000        C
    1.425141  364.730115    5.000000        C
    1.425141  367.198531    5.000000        C
    1.425141  369.666947    5.000000        C
    1.425141  372.135363    5.000000        C
    1.425141  374.603779    5.000000        C
    1.425141  377.072195    5.000000        C
    1.425141  379.540611    5.000000        C
    1.425141  382.009027    5.000000        C
    1.425141  384.477443    5.000000        C
    1.425141  386.945859    5.000000        C
    1.425141  389.414275    5.000000        C
    1.425141  391.882691    5.000000        C
    1.425141  394.351107    5.000000        C
    1.425141  396.819523    5.000000        C
    1.425141  399.287939    5.000000        C
    1.425141  401.756355    5.000000        C
    1.425141  404.224771    5.000000        C
    1.425141  406.693187    5.000000        C
    1.425141  409.161603    5.000000        C
    1.425141  411.630019    5.000000        C
    1.425141  414.098435    5.000000        C
    1.425141  416.566851    5.000000        C
    1.425141  419.035267    5.000000        C
    1.425141  421.503683    5.000000        C
    1.425141  423.972099    5.000000        C
    1.425141  426.440515    5.000000        C
    1.425141  428.908931    5.000000        C
    1.425141  431.377347    5.000000        C
    1.425141  433.845763    5.000000        C
    1.425141  436.314179    5.000000        C
    1.425141  438.782595    5.000000        C
    1.425141  441.251011    5.000000        C
    1.425141  443.719427    5.000000        C
    1.425141  446.187843    5.000000        C
    1.425141  448.656259    5.000000        C
    1.425141  451.124675    5.000000        C
    1.425141  453.593091    5.000000        C
    1.425141  456.061507    5.000000        C
    1.425141  458.529923    5.000000        C
    1.425141  460.998339    5.000000        C
    1.425141  463.466755    5.000000        C
    1.425141  465.935171    5.000000        C
    1.425141  468.403587    5.000000        C
    1.425141  470.872003    5.000000        C
    1.425141  473.340419    5.000000        C
    1.425141  475.808835    5.000000        C
    1.425141  478.277251    5.000000        C
    1.425141  480.745667    5.000000        C
    1.425141  483.214083    5.000000        C
    1.425141  485.682499    5.000000        C
    1.425141  488.150915    5.000000        C
    1.425141  490.619331    5.000000        C
    1.425141  493.087747    5.000000        C
    1.425141  495.556163    5.000000        C
    1.425141  498.024579    5.000000        C
    1.425141  500.492995    5.000000        C
    1.425141  502.961411    5.000000        C
    1.425141  505.429827    5.000000        C
    1.425141  507.898243    5.000000        C
    1.425141  510.366659    5.000000        C
    1.425141  512.835075    5.000000        C
    1.425141  515.303491    5.000000        C
    1.425141  517.771907    5.000000        C
    1.425141  520.240323    5.000000        C
    1.425141  522.708739    5.000000        C
    1.425141  525.177155    5.000000        C
    1.425141  527.645571    5.000000        C
    1.425141  530.113987    5.000000        C
    1.425141  532.582403    5.000000        C
    1.425141  535.050819    5.000000        C
    1.425141  537.519235    5.000000        C
    1.425141  539.987651    5.000000        C
    1.425141  542.456067    5.000000        C
    1.425141  544.924483    5.000000        C
    1.425141  547.392899    5.000000        C
    1.425141  549.861315    5.000000        C
    1.425141  552.329731    5.000000        C
    1.425141  554.798147    5.000000        C
    1.425141  557.266563    5.000000        C
    1.425141  559.734979    5.000000        C
    1.425141  562.203395    5.000000        C
    1.425141  564.671811    5.000000        C
    1.425141  567.140227    5.000000        C
    1.425141  569.608643    5.000000        C
    1.425141  572.077059    5.000000        C
    1.425141  574.545475    5.000000        C
    1.425141  577.013891    5.000000        C
    1.425141  579.482307    5.000000        C
    1.425141  581.950723    5.000000        C
    1.425141  584.419139    5.000000        C
    1.425141  586.887555    5.000000        C
    1.425141  589.355971    5.000000        C
    1.425141  591.824387    5.000000        C
    1.425141  594.292803    5.000000        C
    1.425141  596.761219    5.000000        C
    1.425141  599.229635    5.000000        C
    1.425141  601.698051    5.000000        C
    1.425141  604.166467    5.000000        C
    1.425141  606.634883    5.000000        C
    1.425141  609.103299    5.000000        C
    1.425141  611.571715    5.000000        C